# 
# This file contains the parameter values of the Design Points successfully updated by Ansys Workbench.
# Project name: Project2
# Creation date: 11/16/2021 14:50:53
# 
# 11/16/2021 14:50:53
# The parameters defined in the project are:
# ,P1 - rotor_thickness [mm],P2 - rotor_OD [mm],P3 - rotor_ID [mm]
# 
# The following header line defines the name of the columns by reference to the parameters.
Name,P1,P2,P3
DP 0,25,125,75
# 
# A non parametric change occurred and invalidated design point results.
# 11/17/2021 20:07:23
# 
# 
# 11/17/2021 21:37:12
# Parameters have been added and/or removed. The parameters now defined in the project are:
# ,P1 - rotor_thickness [mm],P2 - rotor_OD [mm],P3 - rotor_ID [mm],P4 - Total Deformation Reported Frequency [Hz],P5 - Equivalent Stress Maximum [Pa],P6 - Temperature Maximum [C],P7 - Geometry Volume [m^3]
# 
# The following header line defines the name of the columns by reference to the parameters.
Name,P1,P2,P3,P4,P5,P6,P7
DP 1,22.666666666666668,133.83333333333334,70,1452.5762798767507,11387117.497621484,348.21640014648438,0.0011564386399211912
DP 2,23,125.83333333333333,71,1620.4524268073567,11489723.404033527,343.81222534179688,0.0010130891924901107
DP 3,23.333333333333332,139.16666666666666,72,1349.1280397303187,11354583.734408848,346.05227661132813,0.0012762618344335504
DP 4,23.666666666666668,135.16666666666666,82,1347.2113716273047,11668331.348636724,345.49288940429688,0.0011302120135837849
DP 5,24,127.16666666666667,75,1561.7635289545669,11674886.5291173,343.45843505859375,0.0010419699410210246
# 
# A non parametric change occurred and invalidated design point results.
# 11/23/2021 19:15:36
# 
# 
# 11/28/2021 17:27:13
# Parameters have been added and/or removed. The parameters now defined in the project are:
# ,P1 - rotor_thickness [mm],P2 - rotor_OD [mm],P3 - rotor_ID [mm],P4 - Total Deformation Reported Frequency [Hz],P5 - Equivalent Stress Maximum [Pa],P6 - Temperature Maximum [C],P7 - Geometry Volume [m^3]
# 
# The following header line defines the name of the columns by reference to the parameters.
Name,P1,P2,P3,P4,P5,P6,P7
DP 16,15.333333333333334,144.4,70,1080.1168299232656,10427963.957793089,405.26351928710938,0.000998301342369204
DP 17,16,130,71.6,1393.722620313217,10936884.18079647,400.34713745117188,0.000827022716205138
# 
# A non parametric change occurred and invalidated design point results.
# 11/28/2021 17:35:17
# 
# 
# 11/28/2021 17:39:40
# Parameters have been added and/or removed. The parameters now defined in the project are:
# ,P1 - rotor_thickness [mm],P2 - rotor_OD [mm],P3 - rotor_ID [mm],P4 - Total Deformation Reported Frequency [Hz],P5 - Equivalent Stress Maximum [Pa],P6 - Temperature Maximum [C],P7 - Disk Volume [m^3]
# 
# The following header line defines the name of the columns by reference to the parameters.
Name,P1,P2,P3,P4,P5,P6,P7
DP 16,15.333333333333334,144.4,70,1080.1168299232656,10427963.957793089,405.26351928710938,0.00096278040143261555
DP 17,16,130,71.6,1393.722620313217,10936884.18079647,400.34713745117188,0.00079150177526854935
DP 18,16.666666666666668,154,73.2,956.46960843606121,9912301.4810917769,399.67828369140625,0.0011663127121735364
DP 19,17.333333333333332,146.8,89.199999999999989,1024.5524813723484,23668682.3023284,384.51040649414063,0.0010037407377775317
DP 20,18,132.4,78,1366.0356460177936,11241072.547667852,377.91213989257813,0.00086902321293370682
DP 21,18.666666666666668,134.8,82.8,1290.3169012282806,11512233.213236069,373.458740234375,0.00090274062835972229
DP 22,19.333333333333332,137.2,74.8,1323.2663357078097,11278588.411348274,367.79763793945313,0.0010140652678742885
DP 23,20,139.6,76.4,1284.0649930905156,11415266.712161914,364.5667724609375,0.0010738711389021475
DP 24,20.666666666666664,151.6,79.6,1090.9768746878658,11430853.791952945,360.57723999023438,0.0013082892428906484
DP 25,21.333333333333332,156.4,86,994.05827583333473,17020021.538155273,355.17398071289063,0.0013948906373069171
DP 26,22,125.2,87.6,1286.0909894242957,15030955.22805585,350.97189331054688,0.00081031715066201689
DP 27,22.666666666666664,142,81.2,1247.3182661808944,11383931.561886514,349.001220703125,0.001199653471584339
DP 28,23.333333333333332,158.8,66.8,1002.0943800952211,12704180.349019086,346.17306518554688,0.0017054267666903643
DP 29,24,149.2,84.4,1119.2603939410865,13078475.011553029,343.83737182617188,0.0013864681530663496
DP 30,24.666666666666664,127.6,68.4,1632.99929061338,11545345.835811142,342.46218872070313,0.0010883107364960867
# 
# 12/01/2021 15:59:22
# Parameters have been added and/or removed. The parameters now defined in the project are:
# ,P1 - rotor_thickness [mm],P2 - rotor_OD [mm],P3 - rotor_ID [mm],P4 - Total Deformation Reported Frequency [Hz],P5 - Equivalent Stress Maximum [Pa],P6 - Temperature Maximum [C],P7 - Disk Volume [m^3]
# 
# The following header line defines the name of the columns by reference to the parameters.
Name,P1,P2,P3,P4,P5,P6,P7
DP 16,15.027104624314234,124.34352368069813,88.958480366505682,1186.5954132576189,22526056.10744556,413.207275390625,0.00061888939111979363
DP 17,15.238954507512972,159.38161690859124,83.584541332907975,893.58410814309377,10417960.567365875,409.91064453125,0.0011237600920447443
DP 18,20.038229987258092,124.00508795352653,66.467347749508917,1583.5947915922327,11893544.823181871,360.47756958007813,0.000872841754942594
DP 19,21.931851982371882,142.20383811602369,66.305103993974626,1217.8984965664872,11457478.809657698,352.0504150390625,0.0012728086116687949
# 
# 12/02/2021 00:05:50
# Parameters have been added and/or removed. The parameters now defined in the project are:
# ,P1 - rotor_thickness [mm],P2 - rotor_OD [mm],P3 - rotor_ID [mm],P4 - Total Deformation Reported Frequency [Hz],P5 - Equivalent Stress Maximum [Pa],P6 - Temperature Maximum [C],P7 - Disk Volume [m^3]
# 
# The following header line defines the name of the columns by reference to the parameters.
Name,P1,P2,P3,P4,P5,P6,P7
DP 16,15.166666666666666,137.8,79.2,1239.4893047643409,10960132.487926023,413.34304809570313,0.000831958346759487
DP 17,15.5,130.6,84.8,1265.1297914841734,11620603.957826586,405.69064331054688,0.00072703572853020915
DP 18,15.833333333333334,133,72,1325.83626212099,11091411.612750124,401.88232421875,0.0008230684773078684
DP 19,16.166666666666668,131.8,76,1366.1394262636588,10944920.976727221,397.54595947265625,0.00080365515211266753
DP 20,16.5,135.4,69.6,1270.6110777183769,10686459.461155403,396.44595336914063,0.00089228865432098431
DP 21,16.833333333333332,159.4,84,911.07545585712046,10858667.730146609,388.0157470703125,0.0012141828140084148
DP 22,17.166666666666668,146.2,80.8,1115.6585393739,10911113.681748414,388.03598022460938,0.0010324878813542048
DP 23,17.5,141.4,72.8,1188.9317023481024,11160030.298730532,384.3189697265625,0.0010115969185263631
DP 24,17.833333333333332,153.4,78.4,1024.6536493055767,11390528.554042801,378.9959716796875,0.0011971990709077943
DP 25,18.166666666666668,140.2,81.6,1219.3909340280538,10811210.2251306,377.32977294921875,0.00097655995041003594
DP 26,18.5,158.2,82.4,970.44696240168685,11767639.381867394,373.74264526367188,0.0012976574022005162
DP 27,18.833333333333332,127,88.8,1220.2784286976598,16982660.972147215,372.01971435546875,0.00074969683221069088
DP 28,19.166666666666664,142.6,86.4,1138.6994467110474,11462341.145124594,368.62545776367188,0.0010276494097886564
DP 29,19.5,147.4,66.4,1076.5655954463921,10868737.975031605,361.061767578125,0.00124362112891283
DP 30,19.833333333333332,157,75.2,998.51262719190868,11613656.251022104,362.48236083984375,0.0013954443744280385
DP 31,20.166666666666664,154.6,85.6,1002.0823377257242,12347962.320548069,362.67892456054688,0.0012997086108758982
DP 32,20.5,134.2,67.2,1362.9788208584694,11138795.659215432,359.43161010742188,0.0010543093839260392
DP 33,20.833333333333332,136.6,68.8,1349.4447224166493,11283966.943182062,357.41241455078125,0.0011019126807688242
DP 34,21.166666666666668,149.8,77.6,1126.5095415867245,11296112.477710573,357.59121704101563,0.0013121303425644871
DP 35,21.5,143.8,71.2,1218.1795133609139,11339359.059189765,354.7537841796875,0.0012526651458439845
DP 36,21.833333333333336,125.8,73.6,1580.1257618541804,11365396.341775637,346.99588012695313,0.00092041118644627085
DP 37,22.166666666666664,128.2,88,1272.3591865974356,13941789.689029705,351.92703247070313,0.00086409763547584868
DP 38,22.5,148.6,80,1153.9594583833293,11996679.825656839,350.651611328125,0.0013374359970528592
DP 39,22.833333333333332,152.2,70.4,1130.0647802543808,11597466.244280268,349.7247314453125,0.0015018718574262885
DP 40,23.166666666666664,139,76.8,1338.20310585387,11310303.68110054,347.3443603515625,0.0011944549106688352
DP 41,23.5,145,83.199999999999989,1196.5476444732494,11908463.615500553,345.60736083984375,0.0012818359646059201
DP 42,23.833333333333332,155.8,87.2,1019.8522189049604,17722067.585413598,344.41873168945313,0.0015039152749518887
DP 43,24.166666666666664,124.6,89.6,1267.3673335527037,27003715.619158909,339.88168334960938,0.00083426029641652693
DP 44,24.5,151,74.4,1175.4203803554274,12284942.594064279,342.47970581054688,0.00153812370036571
DP 45,24.833333333333332,129.4,68,1584.448827557005,11620161.329469446,343.7425537109375,0.0011334361754371815
DP 16,15.185224529122934,144.05724849319085,89.8459945851937,1055.2636721800211,25083989.508085843,409.57781982421875,0.00087095665962521609
DP 17,15.370666204253212,159.93940306873992,67.140597137622535,788.46986921230211,10430930.165849851,402.24346923828125,0.0012026511739142895
DP 18,24.816661364166066,125.14221042348072,80.006821925751865,1507.0554690840215,11858426.613944329,341.93338012695313,0.00095087293795973783
DP 16,18.994370700092986,124.36414117598906,79.853180858306587,1452.0612537096213,12381752.571481355,369.72653198242188,0.00077083175804323184
DP 17,20.206527268746868,159.92324933921918,66.357215655036271,904.580787193474,11744406.894805446,351.60348510742188,0.00152660155606184
DP 18,24.775194573448971,136.97053646249697,89.226380816660821,1205.7037796971078,27864291.668765139,342.57220458984375,0.0011041840042213596
# 
# 12/02/2021 14:32:54
# Parameters have been added and/or removed. The parameters now defined in the project are:
# ,P1 - rotor_thickness [mm],P2 - rotor_OD [mm],P3 - rotor_ID [mm],P4 - Total Deformation Reported Frequency [Hz],P5 - Equivalent Stress Maximum [Pa],P6 - Temperature Maximum [C],P7 - Disk Volume [m^3]
# 
# The following header line defines the name of the columns by reference to the parameters.
Name,P1,P2,P3,P4,P5,P6,P7
DP 16,15.042021305998787,158.72478434676304,75.080619432963431,887.23691522355591,10142637.018847581,415.64218139648438,0.0011357088916577151
DP 17,15.185761986067519,147.44034035736695,67.680531478486955,970.69293577297924,10244651.162069056,408.66683959960938,0.001005384281335306
DP 18,24.943042449885979,159.09716438455507,66.2457644334063,1031.7896567905098,13613632.055791328,336.66546630859375,0.0018217999613764561
DP 19,24.947333940071985,140.59920862643048,70.241272780112922,1366.4480006668728,12072475.6837418,340.47396850585938,0.0013578117069813099
DP 16,16.177320516435429,124.59066908294335,66.780187991447747,1461.7730347006682,10848800.093898479,392.75341796875,0.00074618993735507254
DP 17,21.937899444019422,145.14643751597032,89.9165917346254,1099.1788139908713,29430704.935268514,351.62808227539063,0.0011610680570820981
DP 18,24.706187545089051,159.66315942024812,80.217308239080012,1039.6803837299283,13169494.11642018,342.47869873046875,0.0017089117535534731
DP 16,20.782385416096076,133.40668431343511,81.947143974713981,1333.145480474182,11243094.559507357,357.900146484375,0.000959579856574752
DP 16,17.643510614288971,151.28441641898826,89.588241669349372,972.22094144835683,23918168.319469716,381.787841796875,0.0010887502806046789
DP 17,22.575,125.125,72.575,1616.2435733216146,11442269.135726361,348.415771484375,0.00093979684180237608
DP 19,22.675,131.375,69.24166666666666,1503.3638081201736,11225003.303472172,348.14971923828125,0.001079844240331404
DP 21,22.775,128.25,79.24166666666666,1465.3746706353527,11633415.518382384,348.332275390625,0.00095378968134266775
DP 22,22.825,122,70.908333333333331,1729.9052344233683,11821203.440440938,355.8968505859375,0.00090413862862026822
DP 23,22.875,134.5,75.908333333333331,1421.1885582220214,11187607.869866733,347.74078369140625,0.001100375165061976
DP 25,16.947223069128068,124.12778047605005,85.143651224415919,1305.8647333628526,11215740.825542148,383.53961181640625,0.00068229867536678172
DP 25,16.947223069128068,124.12471961524314,84.547690134482536,1323.708582691844,11087207.971943866,385.77426147460938,0.000685398647992656
DP 25,18.112535751834393,124.15062813379062,85.798682496554662,1297.011789622155,11388569.77077988,373.89544677734375,0.00070859597518151021
